100
1000
200
199
199
199
198
198
197
197
196
196
195
192
191
191
190
190
189
189
188
188
187
187
186
186
186
186
185
183
183
182
181
180
180
180
180
179
179
178
178
178
175
175
175
175
175
175
174
174
174
172
172
172
170
170
170
170
169
168
168
167
167
167
166
166
166
166
166
165
165
164
163
163
163
162
162
161
161
161
159
159
159
158
157
157
156
156
155
154
154
154
154
153
152
152
152
152
152
151
151
150
